c FILE /home/rafael/Documents/HappySet/MIHS/inputs/happygen/output/graph_scale_free_k2_p0.3_v100_20241127_083755.txt
c SOURCE This is a scale-free graph formed for the happy graph colouring problem.
c DESCRIPTION It was generated using the problem generator of Rhyd Lewis
c
c GRAPH STATS
c Seed                             = -570390621
c Number of Nodes                  = 100
c Number of colours k              = 2
c Number of pre-assignments        = 30
c Number of links per new node     = 5
c Density                          = 0.0979798
c 
c The degrees of nodes 1 to 100, respectively, are as follows 
c [42, 33, 32, 31, 30, 27, 25, 23, 23, 19, 18, 17, 15, 15, 14, 14, 14, 13, 13, 13, 13, 12, 11, 11, 10, 10, 
c  10, 9, 9, 9, 9, 9, 9, 9, 8, 8, 8, 8, 8, 8, 8, 8, 7, 7, 7, 7, 7, 7, 7, 7, 7, 
c  7, 7, 7, 7, 7, 7, 7, 7, 6, 6, 6, 6, 6, 6, 6, 6, 6, 6, 6, 5, 5, 5, 5, 5, 5, 
c  5, 5, 5, 5, 5, 5, 5, 5, 5, 5, 5, 5, 5, 5, 5, 5, 5, 5, 5, 5, 5, 5, 5, 5] 
c  
p edge 100 485 2
e 1 2
e 1 3
e 1 4
e 1 5
e 1 6
e 1 8
e 1 10
e 1 11
e 1 12
e 1 14
e 1 15
e 1 16
e 1 17
e 1 19
e 1 20
e 1 22
e 1 24
e 1 25
e 1 28
e 1 32
e 1 35
e 1 36
e 1 37
e 1 40
e 1 43
e 1 45
e 1 48
e 1 53
e 1 56
e 1 58
e 1 60
e 1 61
e 1 70
e 1 75
e 1 80
e 1 81
e 1 84
e 1 85
e 1 87
e 1 89
e 1 93
e 1 97
e 2 3
e 2 4
e 2 5
e 2 7
e 2 8
e 2 9
e 2 10
e 2 11
e 2 12
e 2 13
e 2 15
e 2 16
e 2 17
e 2 18
e 2 20
e 2 21
e 2 29
e 2 31
e 2 34
e 2 37
e 2 38
e 2 48
e 2 49
e 2 59
e 2 60
e 2 61
e 2 66
e 2 69
e 2 78
e 2 87
e 2 95
e 2 99
e 3 4
e 3 5
e 3 7
e 3 8
e 3 9
e 3 10
e 3 11
e 3 13
e 3 16
e 3 18
e 3 19
e 3 22
e 3 28
e 3 31
e 3 32
e 3 35
e 3 36
e 3 39
e 3 43
e 3 44
e 3 55
e 3 58
e 3 65
e 3 67
e 3 71
e 3 76
e 3 78
e 3 85
e 3 86
e 3 90
e 4 5
e 4 6
e 4 9
e 4 13
e 4 14
e 4 15
e 4 16
e 4 18
e 4 21
e 4 25
e 4 28
e 4 29
e 4 30
e 4 32
e 4 33
e 4 41
e 4 46
e 4 47
e 4 49
e 4 56
e 4 61
e 4 68
e 4 70
e 4 72
e 4 77
e 4 79
e 4 94
e 4 96
e 5 7
e 5 8
e 5 9
e 5 11
e 5 12
e 5 13
e 5 17
e 5 18
e 5 25
e 5 26
e 5 27
e 5 28
e 5 31
e 5 40
e 5 47
e 5 51
e 5 54
e 5 70
e 5 73
e 5 76
e 5 77
e 5 82
e 5 90
e 5 91
e 5 92
e 5 96
e 6 7
e 6 8
e 6 14
e 6 15
e 6 16
e 6 17
e 6 19
e 6 20
e 6 26
e 6 30
e 6 38
e 6 41
e 6 42
e 6 43
e 6 45
e 6 49
e 6 53
e 6 58
e 6 59
e 6 69
e 6 71
e 6 73
e 6 75
e 6 81
e 6 89
e 7 8
e 7 9
e 7 12
e 7 15
e 7 20
e 7 22
e 7 23
e 7 24
e 7 35
e 7 48
e 7 50
e 7 53
e 7 56
e 7 57
e 7 65
e 7 67
e 7 73
e 7 84
e 7 91
e 7 96
e 7 100
e 8 9
e 8 13
e 8 19
e 8 26
e 8 28
e 8 30
e 8 36
e 8 41
e 8 47
e 8 48
e 8 49
e 8 53
e 8 60
e 8 62
e 8 64
e 8 66
e 8 79
e 9 10
e 9 13
e 9 21
e 9 23
e 9 25
e 9 27
e 9 31
e 9 34
e 9 35
e 9 37
e 9 43
e 9 44
e 9 69
e 9 72
e 9 78
e 9 85
e 9 97
e 10 11
e 10 13
e 10 14
e 10 15
e 10 29
e 10 30
e 10 33
e 10 51
e 10 63
e 10 68
e 10 72
e 10 92
e 10 93
e 10 98
e 10 100
e 11 12
e 11 14
e 11 42
e 11 45
e 11 46
e 11 52
e 11 60
e 11 68
e 11 71
e 11 74
e 11 85
e 11 86
e 11 98
e 12 23
e 12 31
e 12 52
e 12 62
e 12 64
e 12 69
e 12 76
e 12 80
e 12 82
e 12 91
e 12 94
e 12 99
e 13 22
e 13 26
e 13 29
e 13 35
e 13 47
e 13 64
e 13 77
e 13 98
e 14 24
e 14 26
e 14 27
e 14 47
e 14 54
e 14 63
e 14 79
e 14 80
e 14 81
e 14 97
e 15 19
e 15 22
e 15 37
e 15 38
e 15 44
e 15 63
e 15 72
e 15 78
e 16 21
e 16 32
e 16 43
e 16 44
e 16 45
e 16 46
e 16 59
e 16 62
e 16 64
e 17 34
e 17 35
e 17 40
e 17 44
e 17 50
e 17 52
e 17 79
e 17 84
e 17 89
e 17 100
e 18 24
e 18 28
e 18 29
e 18 33
e 18 39
e 18 73
e 18 74
e 18 83
e 18 94
e 19 23
e 19 34
e 19 36
e 19 54
e 19 62
e 19 71
e 19 86
e 19 88
e 20 21
e 20 22
e 20 42
e 20 50
e 20 56
e 20 63
e 20 80
e 20 95
e 20 99
e 21 38
e 21 39
e 21 49
e 21 50
e 21 52
e 21 67
e 21 81
e 21 95
e 22 27
e 22 46
e 22 66
e 22 71
e 22 78
e 22 90
e 23 34
e 23 37
e 23 40
e 23 51
e 23 55
e 23 83
e 23 87
e 24 29
e 24 50
e 24 75
e 24 76
e 24 83
e 24 88
e 24 89
e 25 28
e 25 30
e 25 33
e 25 45
e 25 46
e 25 48
e 26 40
e 26 57
e 26 58
e 26 68
e 26 80
e 27 36
e 27 53
e 27 63
e 27 67
e 27 74
e 27 76
e 28 73
e 28 75
e 29 37
e 29 39
e 29 75
e 30 32
e 30 54
e 30 61
e 30 81
e 31 51
e 31 52
e 31 70
e 31 98
e 32 41
e 32 64
e 32 77
e 32 82
e 33 49
e 33 55
e 33 70
e 33 85
e 33 99
e 34 79
e 34 86
e 34 93
e 34 95
e 35 54
e 35 86
e 36 43
e 36 59
e 36 72
e 37 38
e 37 97
e 38 39
e 38 61
e 38 74
e 39 42
e 39 87
e 39 94
e 40 67
e 40 90
e 40 94
e 41 54
e 41 55
e 41 65
e 41 68
e 42 56
e 42 69
e 42 88
e 42 91
e 43 87
e 44 60
e 44 65
e 45 57
e 45 97
e 46 55
e 46 66
e 47 62
e 47 90
e 48 51
e 48 57
e 49 74
e 50 88
e 50 93
e 51 84
e 51 96
e 52 77
e 52 83
e 53 82
e 53 92
e 54 100
e 55 59
e 55 66
e 56 60
e 56 92
e 57 63
e 57 88
e 57 96
e 58 65
e 58 93
e 58 95
e 59 89
e 59 100
e 61 98
e 62 82
e 64 65
e 66 84
e 67 99
e 68 83
e 69 91
e 70 92
n 3 1
n 4 1
n 6 1
n 9 1
n 10 1
n 12 2
n 13 1
n 14 1
n 16 1
n 17 1
n 18 1
n 20 1
n 43 1
n 45 1
n 46 1
n 57 1
n 60 2
n 63 1
n 70 1
n 71 1
n 74 1
n 81 1
n 82 2
n 83 1
n 87 1
n 91 2
n 93 1
n 95 1
n 96 1
n 97 1
